(set-logic ALL)
(declare-fun i1 () Int)
(declare-fun it1238 () Int)
(declare-fun it1239 () Int)
(declare-fun i2 () Int)
(declare-fun i3 () Int)
(declare-fun it1240 () Int)
(declare-fun i4 () Int)
(declare-fun it1241 () Int)
(declare-fun it1242 () Int)
(declare-fun i5 () Int)
(declare-fun i6 () Int)
(declare-fun it1243 () Int)
(declare-fun i7 () Int)
(declare-fun it1244 () Int)
(declare-fun it1245 () Int)
(declare-fun it1246 () Int)
(declare-fun it1247 () Int)
(declare-fun it1248 () Int)
(declare-fun it1249 () Int)
(declare-fun it1250 () Int)
(declare-fun it1251 () Int)
(declare-fun it1638 () Int)
(declare-fun it1639 () Int)
(declare-fun it1640 () Int)
(declare-fun it1641 () Int)
(declare-fun it1642 () Int)
(declare-fun it1643 () Int)
(declare-fun it1644 () Int)
(declare-fun it1645 () Int)
(declare-fun it1646 () Int)
(declare-fun it1647 () Int)
(declare-fun it1648 () Int)
(declare-fun it1649 () Int)
(declare-fun it1650 () Int)
(declare-fun it1651 () Int)
(declare-fun it1745 () Int)
(declare-fun it1746 () Int)
(declare-fun it1747 () Int)
(declare-fun it1748 () Int)
(declare-fun it1749 () Int)
(declare-fun it1750 () Int)
(declare-fun it1751 () Int)
(declare-fun it1784 () Int)
(declare-fun it1785 () Int)
(declare-fun it1786 () Int)
(declare-fun it1787 () Int)
(declare-fun it1788 () Int)
(declare-fun it1789 () Int)
(declare-fun it1790 () Int)
(declare-fun it1798 () Int)
(declare-fun it1799 () Int)
(declare-fun it1800 () Int)
(declare-fun it1801 () Int)
(declare-fun it1802 () Int)
(declare-fun it1803 () Int)
(declare-fun it1804 () Int)
(declare-fun it1089 () Int)
(assert (= (+ i1 (- 1)) 0))
(assert (= (+ it1238 (- 5)) 0))
(assert (= (+ (* i2 (- 1)) it1239 (- 4)) 0))
(assert (= (+ it1240 (* i3 (- 1))) 0))
(assert (= (+ it1241 (* i4 (- 1))) 0))
(assert (= (+ (* i5 (- 1)) it1242) 0))
(assert (= (+ it1243 (* i6 (- 1))) 0))
(assert (= (+ it1244 (* i7 (- 1))) 0))
(assert (and (= (+ it1238 (- 5)) 0) (> (+ it1241 (- 2)) 0)))
(assert (= (+ it1245 (- 18)) 0))
(assert (= (+ (* it1239 (- 1)) it1246 (- 12)) 0))
(assert (= (+ (* it1240 (- 1)) it1247) 0))
(assert (= (+ (* it1241 (- 1)) it1248) 0))
(assert (= (+ it1249 (* it1242 (- 1))) 0))
(assert (= it1250 0))
(assert (= (+ (* it1244 (- 1)) it1251) 0))
(assert (and (= (+ it1245 (- 18)) 0) (<= (+ it1250 (* it1248 (- 1)) 2) 0)))
(assert (= (+ it1638 (- 20)) 0))
(assert (= (+ it1639 (* it1246 (- 1)) (- 2)) 0))
(assert (= (+ (* it1247 (- 1)) it1640) 0))
(assert (= (+ it1641 (* it1248 (- 1))) 0))
(assert (= it1642 0))
(assert (= (+ it1643 (* it1250 (- 1))) 0))
(assert (= (+ it1644 (* it1251 (- 1))) 0))
(assert (and (= (+ it1638 (- 20)) 0) (<= (+ it1643 (* it1641 (- 1)) (* it1642 2) 3) 0)))
(assert (= (+ it1645 (- 21)) 0))
(assert (= (+ (* it1639 (- 1)) it1646 (- 1)) 0))
(assert (= (+ (* it1640 (- 1)) it1647) 0))
(assert (= (+ (* it1641 (- 1)) it1648) 0))
(assert (= (+ it1649 (* it1642 (- 1))) 0))
(assert (= (+ (* it1643 (- 1)) it1650) 0))
(assert (= (+ (* it1644 (- 1)) it1651) 0))
(assert (and (< (+ (* it1649 2) it1650 (* it1648 (- 1)) 3) 0) (= (+ it1645 (- 21)) 0)))
(assert (= (+ it1745 (- 24)) 0))
(assert (= (+ (* it1646 (- 1)) it1746 (- 1)) 0))
(assert (= (+ it1747 (* it1647 (- 1))) 0))
(assert (= (+ it1748 (* it1648 (- 1))) 0))
(assert (= (+ (* it1649 (- 1)) it1749) 0))
(assert (= (+ it1750 (* it1650 (- 1))) 0))
(assert (= (+ it1751 (* it1651 (- 1))) 0))
(assert (= (+ it1745 (- 24)) 0))
(assert (= (+ it1784 (- 26)) 0))
(assert (= (+ it1785 (* it1746 (- 1)) (- 2)) 0))
(assert (= (+ (* it1747 (- 1)) it1786) 0))
(assert (= (+ (* it1748 (- 1)) it1787) 0))
(assert (= (+ it1788 (* it1749 (- 1))) 0))
(assert (= (+ (* it1750 (- 1)) it1789) 0))
(assert (= (+ (* it1749 (- 2)) it1790 (- 1)) 0))
(assert (= (+ it1784 (- 26)) 0))
(assert (= (+ it1798 (- 20)) 0))
(assert (= (+ (* it1785 (- 1)) it1799 (- 1)) 0))
(assert (= (+ (* it1786 (- 1)) it1800) 0))
(assert (= (+ it1801 (* it1787 (- 1))) 0))
(assert (= (+ it1802 (* it1787 (- 1))) 0))
(assert (= (+ (* it1789 (- 1)) it1803) 0))
(assert (= (+ it1804 (* it1790 (- 1))) 0))
(assert (let ((a!1 (+ (* (+ 0 it1802) (exp 2 (+ it1089 (- 1))) (+ 0 (- 2)))
              (+ 0 it1801)
              (* (exp 2 (+ it1089 (- 1))) (+ 0 (- 2)))
              (+ 0 (* it1803 (- 1)))
              (+ 0 (- 1)))))
  (and (>= a!1 (+ 0 0))
       (> (+ it1801 (* it1802 (- 2)) (* it1803 (- 1)) (- 3)) 0)
       (> a!1 (+ 0 0))
       (>= (+ it1801 (* it1802 (- 2)) (* it1803 (- 1)) (- 3)) 0)
       (>= (+ (* it1798 (- 1)) 20) 0)
       (>= (+ it1798 (- 20)) 0)
       (>= (+ it1089 (- 1)) 0))))
(check-sat)
